instances/A-n10-k3-m0-b1ampl_.txt
set K:= 1	2	3;
set C_H:= 1	2	3;
set C_S:= 4	5	6;
set C_F:= 7	8	9;
set M:= 10	11	12	13	14	15;
set L_B:= 16;
set A1:=
(0,*) 1 2 3 7 8 9 10 11 12 13 14 15 16 17
(1,*) 0 2 3 7 8 9 10 11 12 13 14 15 16 17
(2,*) 0 1 3 7 8 9 10 11 12 13 14 15 16 17
(3,*) 0 1 2 7 8 9 10 11 12 13 14 15 16 17
(7,*) 0 1 2 3 8 9 10 11 12 13 14 15 16 17
(8,*) 0 1 2 3 7 9 10 11 12 13 14 15 16 17
(9,*) 0 1 2 3 7 8 10 11 12 13 14 15 16 17
(10,*) 0 1 2 3 7 8 9 11 12 13 14 15 16 17
(11,*) 0 1 2 3 7 8 9 10 12 13 14 15 16 17
(12,*) 0 1 2 3 7 8 9 10 11 13 14 15 16 17
(13,*) 0 1 2 3 7 8 9 10 11 12 14 15 16 17
(14,*) 0 1 2 3 7 8 9 10 11 12 13 15 16 17
(15,*) 0 1 2 3 7 8 9 10 11 12 13 14 16 17
(16,*) 0 1 2 3 7 8 9 10 11 12 13 14 15 17
(17,*) 0 1 2 3 7 8 9 10 11 12 13 14 15 16
;
set A2:=
;
param BigM:=99999;
param n:= 3;
param d:=
1	13
2	13
3	12
4	23
5	2
6	12
7	10
8	14
9	2
;
param Q:=100;
param e:
	10	11	12	13	14	15	16:=
4		0		0		0		1		0		0		1	
5		0		0		1		0		0		1		0	
6		1		0		0		1		1		0		0	
7		0		0		0		1		0		0		0	
8		0		1		1		0		0		1		0	
9		0		1		0		0		0		1		1	
;
param p:=
1	1
2	1
3	1
;
param G:=
10	83
11	100
12	70
13	87
14	73
15	71
16	90
;
param s:=
0	0
1	10
2	10
3	10
7	10
8	10
9	10
10	10
11	10
12	10
13	10
14	10
15	10
16	10
;
param t:
	0	1	2	3	4	5	6	7	8	9	10	11	12	13	14	15	16	17:=
0	0.0	11.66	19.92	17.0	78.23	75.5	30.36	69.35	89.29	103.48	27.29	102.07	80.01	70.11	15.52	80.52	73.16	0.0
1	11.66	0.0	29.68	9.22	69.05	80.16	24.21	60.42	93.06	100.5	19.72	100.69	86.7	60.83	11.18	84.59	64.43	11.66
2	19.92	29.68	0.0	29.83	85.0	58.87	36.4	75.95	73.41	97.25	36.25	93.24	61.2	77.47	25.81	64.47	79.12	19.92
3	17.0	9.22	29.83	0.0	61.29	74.03	15.0	52.47	86.28	91.35	10.77	91.81	82.0	53.15	4.47	78.06	56.34	17.0
4	78.23	69.05	85.0	61.29	0.0	92.7	49.09	9.06	96.52	62.0	51.04	71.85	108.25	8.25	63.03	92.46	6.46	78.23
5	75.5	80.16	58.87	74.03	92.7	0.0	66.49	86.05	15.0	63.29	71.02	52.09	17.09	89.02	70.0	6.4	86.47	75.5
6	30.36	24.21	36.4	15.0	49.09	66.49	0.0	40.05	77.16	76.69	5.39	77.9	77.08	41.3	14.87	69.58	43.55	30.36
7	69.35	60.42	75.95	52.47	9.06	86.05	40.05	0.0	90.92	61.66	42.11	70.03	101.14	3.16	54.08	86.27	4.31	69.35
8	89.29	93.06	73.41	86.28	96.52	15.0	77.16	90.92	0.0	56.92	82.05	43.93	25.71	94.02	82.49	8.94	90.64	89.29
9	103.48	100.5	97.25	91.35	62.0	63.29	76.69	61.66	56.92	0.0	81.84	14.21	79.91	64.5	89.81	58.86	58.8	103.48
10	27.29	19.72	36.25	10.77	51.04	71.02	5.39	42.11	82.05	81.84	0.0	83.24	80.99	43.0	12.0	74.33	45.87	27.29
11	102.07	100.69	93.24	91.81	71.85	52.09	77.9	70.03	43.93	14.21	83.24	0.0	68.07	73.06	89.63	47.01	67.77	102.07
12	80.01	86.7	61.2	82.0	108.25	17.09	77.08	101.14	25.71	79.91	80.99	68.07	0.0	104.0	77.67	21.1	101.91	80.01
13	70.11	60.83	77.47	53.15	8.25	89.02	41.3	3.16	94.02	64.5	43.0	73.06	104.0	0.0	55.0	89.31	6.02	70.11
14	15.52	11.18	25.81	4.47	63.03	70.0	14.87	54.08	82.49	89.81	12.0	89.63	77.67	55.0	0.0	74.17	57.8	15.52
15	80.52	84.59	64.47	78.06	92.46	6.4	69.58	86.27	8.94	58.86	74.33	47.01	21.1	89.31	74.17	0.0	86.37	80.52
16	73.16	64.43	79.12	56.34	6.46	86.47	43.55	4.31	90.64	58.8	45.87	67.77	101.91	6.02	57.8	86.37	0.0	73.16
;
